NAME : 0
COMMENT : CVRP Instance
TYPE : CVRP
DIMENSION : 455
EDGE_WEIGHT_TYPE : EUC_2D
CAPACITY : 70
NODE_COORD_SECTION
1	764.0	230.0
2	538.0	308.0
3	549.0	355.0
4	963.0	80.0
5	695.0	286.0
6	769.0	182.0
7	558.0	420.0
8	716.0	271.0
9	587.0	222.0
10	584.0	372.0
11	769.0	174.0
12	741.0	176.0
13	896.0	129.0
14	609.0	300.0
15	917.0	209.0
16	815.0	309.0
17	724.0	195.0
18	549.0	346.0
19	610.0	309.0
20	493.0	308.0
21	518.0	303.0
22	641.0	339.0
23	545.0	397.0
24	518.0	342.0
25	579.0	314.0
26	748.0	155.0
27	181.0	852.0
28	658.0	233.0
29	795.0	316.0
30	730.0	281.0
31	623.0	256.0
32	658.0	297.0
33	590.0	438.0
34	765.0	111.0
35	572.0	286.0
36	600.0	222.0
37	764.0	140.0
38	679.0	241.0
39	579.0	237.0
40	740.0	129.0
41	674.0	322.0
42	606.0	293.0
43	555.0	390.0
44	580.0	251.0
45	637.0	290.0
46	853.0	322.0
47	874.0	148.0
48	718.0	296.0
49	684.0	279.0
50	537.0	287.0
51	863.0	344.0
52	588.0	302.0
53	696.0	255.0
54	782.0	330.0
55	891.0	279.0
56	411.0	529.0
57	539.0	309.0
58	158.0	850.0
59	856.0	286.0
60	895.0	97.0
61	709.0	246.0
62	655.0	287.0
63	581.0	370.0
64	750.0	216.0
65	809.0	332.0
66	451.0	476.0
67	630.0	238.0
68	578.0	345.0
69	512.0	350.0
70	729.0	301.0
71	721.0	336.0
72	475.0	314.0
73	578.0	335.0
74	666.0	329.0
75	872.0	131.0
76	610.0	280.0
77	462.0	335.0
78	510.0	396.0
79	735.0	390.0
80	631.0	324.0
81	888.0	313.0
82	42.0	978.0
83	654.0	320.0
84	945.0	15.0
85	611.0	302.0
86	608.0	340.0
87	849.0	134.0
88	559.0	364.0
89	778.0	242.0
90	694.0	209.0
91	885.0	211.0
92	655.0	377.0
93	812.0	261.0
94	465.0	305.0
95	601.0	327.0
96	809.0	348.0
97	887.0	177.0
98	412.0	538.0
99	656.0	309.0
100	801.0	327.0
101	224.0	864.0
102	768.0	193.0
103	897.0	289.0
104	567.0	292.0
105	627.0	371.0
106	854.0	245.0
107	562.0	274.0
108	573.0	345.0
109	572.0	334.0
110	672.0	198.0
111	633.0	371.0
112	0.0	1000.0
113	847.0	269.0
114	858.0	256.0
115	845.0	300.0
116	850.0	304.0
117	931.0	97.0
118	544.0	384.0
119	451.0	494.0
120	720.0	288.0
121	648.0	287.0
122	841.0	327.0
123	582.0	157.0
124	744.0	345.0
125	863.0	254.0
126	831.0	266.0
127	575.0	389.0
128	643.0	250.0
129	714.0	235.0
130	626.0	307.0
131	853.0	295.0
132	829.0	320.0
133	682.0	256.0
134	599.0	264.0
135	660.0	272.0
136	837.0	249.0
137	654.0	299.0
138	598.0	286.0
139	754.0	375.0
140	109.0	952.0
141	593.0	318.0
142	464.0	389.0
143	901.0	112.0
144	730.0	182.0
145	959.0	0.0
146	656.0	283.0
147	404.0	493.0
148	764.0	216.0
149	499.0	489.0
150	687.0	225.0
151	644.0	252.0
152	626.0	272.0
153	599.0	280.0
154	857.0	261.0
155	651.0	260.0
156	14.0	981.0
157	648.0	272.0
158	622.0	342.0
159	709.0	354.0
160	671.0	259.0
161	544.0	353.0
162	601.0	249.0
163	820.0	331.0
164	650.0	361.0
165	677.0	272.0
166	616.0	328.0
167	640.0	318.0
168	850.0	316.0
169	174.0	903.0
170	612.0	266.0
171	558.0	389.0
172	635.0	301.0
173	588.0	365.0
174	456.0	420.0
175	880.0	252.0
176	644.0	259.0
177	811.0	353.0
178	749.0	313.0
179	210.0	848.0
180	165.0	821.0
181	976.0	50.0
182	649.0	351.0
183	697.0	223.0
184	539.0	420.0
185	855.0	336.0
186	848.0	331.0
187	763.0	336.0
188	742.0	331.0
189	629.0	300.0
190	609.0	266.0
191	699.0	189.0
192	606.0	345.0
193	724.0	190.0
194	632.0	361.0
195	619.0	266.0
196	702.0	273.0
197	699.0	153.0
198	580.0	294.0
199	576.0	302.0
200	420.0	500.0
201	689.0	208.0
202	562.0	290.0
203	611.0	246.0
204	668.0	269.0
205	576.0	306.0
206	910.0	280.0
207	587.0	425.0
208	845.0	140.0
209	533.0	336.0
210	547.0	271.0
211	593.0	293.0
212	870.0	254.0
213	601.0	343.0
214	730.0	215.0
215	631.0	302.0
216	610.0	315.0
217	609.0	276.0
218	630.0	341.0
219	821.0	164.0
220	563.0	438.0
221	921.0	274.0
222	701.0	205.0
223	637.0	275.0
224	302.0	802.0
225	641.0	202.0
226	663.0	209.0
227	641.0	281.0
228	623.0	300.0
229	620.0	282.0
230	632.0	236.0
231	939.0	51.0
232	695.0	168.0
233	729.0	148.0
234	606.0	311.0
235	621.0	316.0
236	845.0	137.0
237	593.0	496.0
238	594.0	430.0
239	755.0	147.0
240	630.0	209.0
241	584.0	250.0
242	947.0	48.0
243	953.0	172.0
244	893.0	286.0
245	893.0	78.0
246	853.0	315.0
247	532.0	383.0
248	884.0	92.0
249	748.0	316.0
250	636.0	302.0
251	697.0	222.0
252	746.0	341.0
253	608.0	324.0
254	610.0	247.0
255	605.0	257.0
256	629.0	295.0
257	721.0	263.0
258	614.0	319.0
259	623.0	300.0
260	602.0	314.0
261	636.0	332.0
262	682.0	287.0
263	956.0	42.0
264	981.0	55.0
265	740.0	197.0
266	621.0	380.0
267	929.0	300.0
268	691.0	237.0
269	596.0	319.0
270	598.0	349.0
271	707.0	259.0
272	554.0	397.0
273	526.0	398.0
274	692.0	261.0
275	955.0	76.0
276	626.0	427.0
277	741.0	196.0
278	772.0	325.0
279	606.0	216.0
280	597.0	330.0
281	947.0	99.0
282	616.0	333.0
283	817.0	214.0
284	974.0	45.0
285	467.0	423.0
286	951.0	87.0
287	636.0	193.0
288	520.0	310.0
289	620.0	300.0
290	629.0	315.0
291	608.0	320.0
292	911.0	96.0
293	619.0	314.0
294	728.0	196.0
295	572.0	368.0
296	793.0	332.0
297	871.0	249.0
298	683.0	267.0
299	724.0	210.0
300	723.0	213.0
301	599.0	253.0
302	724.0	308.0
303	599.0	352.0
304	551.0	390.0
305	576.0	409.0
306	743.0	202.0
307	762.0	259.0
308	748.0	147.0
309	551.0	374.0
310	614.0	372.0
311	737.0	142.0
312	671.0	261.0
313	586.0	339.0
314	753.0	179.0
315	770.0	165.0
316	713.0	247.0
317	596.0	281.0
318	595.0	343.0
319	603.0	280.0
320	592.0	328.0
321	753.0	216.0
322	604.0	381.0
323	602.0	382.0
324	573.0	308.0
325	789.0	345.0
326	549.0	210.0
327	705.0	250.0
328	752.0	249.0
329	617.0	348.0
330	623.0	270.0
331	958.0	3.0
332	799.0	116.0
333	764.0	135.0
334	633.0	322.0
335	793.0	271.0
336	762.0	309.0
337	762.0	127.0
338	630.0	250.0
339	798.0	300.0
340	791.0	149.0
341	959.0	55.0
342	788.0	165.0
343	585.0	313.0
344	772.0	147.0
345	757.0	251.0
346	577.0	342.0
347	777.0	129.0
348	762.0	122.0
349	769.0	158.0
350	749.0	208.0
351	607.0	303.0
352	776.0	147.0
353	587.0	323.0
354	553.0	418.0
355	782.0	166.0
356	640.0	343.0
357	969.0	65.0
358	976.0	43.0
359	627.0	258.0
360	551.0	251.0
361	620.0	244.0
362	830.0	218.0
363	612.0	363.0
364	680.0	252.0
365	619.0	270.0
366	680.0	207.0
367	79.0	977.0
368	810.0	324.0
369	763.0	239.0
370	679.0	267.0
371	775.0	204.0
372	697.0	190.0
373	685.0	305.0
374	684.0	232.0
375	583.0	234.0
376	955.0	82.0
377	793.0	124.0
378	595.0	265.0
379	803.0	315.0
380	632.0	359.0
381	930.0	82.0
382	582.0	305.0
383	536.0	484.0
384	645.0	346.0
385	774.0	238.0
386	587.0	432.0
387	798.0	120.0
388	664.0	218.0
389	988.0	117.0
390	957.0	104.0
391	765.0	337.0
392	569.0	345.0
393	769.0	187.0
394	738.0	214.0
395	931.0	117.0
396	634.0	245.0
397	754.0	336.0
398	578.0	333.0
399	908.0	106.0
400	653.0	383.0
401	757.0	287.0
402	781.0	208.0
403	938.0	104.0
404	803.0	256.0
405	589.0	315.0
406	717.0	207.0
407	812.0	231.0
408	794.0	260.0
409	691.0	234.0
410	839.0	121.0
411	726.0	347.0
412	752.0	217.0
413	840.0	149.0
414	812.0	128.0
415	732.0	159.0
416	786.0	318.0
417	815.0	187.0
418	686.0	181.0
419	707.0	187.0
420	677.0	190.0
421	769.0	309.0
422	619.0	176.0
423	803.0	145.0
424	542.0	393.0
425	626.0	198.0
426	562.0	359.0
427	940.0	119.0
428	756.0	213.0
429	771.0	306.0
430	876.0	308.0
431	678.0	217.0
432	529.0	426.0
433	586.0	354.0
434	807.0	187.0
435	589.0	246.0
436	832.0	184.0
437	940.0	87.0
438	838.0	181.0
439	907.0	81.0
440	658.0	216.0
441	822.0	152.0
442	929.0	76.0
443	1000.0	92.0
444	511.0	366.0
445	596.0	221.0
446	693.0	358.0
447	624.0	175.0
448	628.0	239.0
449	563.0	227.0
450	563.0	394.0
451	802.0	143.0
452	596.0	398.0
453	581.0	188.0
454	622.0	247.0
455	598.0	264.0
DEMAND_SECTION
1	0
2	5
3	6
4	5
5	6
6	3
7	4
8	6
9	5
10	5
11	5
12	7
13	5
14	7
15	8
16	8
17	11
18	7
19	4
20	5
21	4
22	6
23	7
24	6
25	5
26	4
27	7
28	6
29	5
30	5
31	5
32	4
33	5
34	6
35	7
36	5
37	7
38	5
39	6
40	3
41	5
42	5
43	3
44	3
45	5
46	6
47	4
48	5
49	4
50	4
51	5
52	8
53	7
54	5
55	5
56	7
57	4
58	5
59	13
60	16
61	13
62	4
63	5
64	7
65	4
66	4
67	6
68	15
69	7
70	4
71	5
72	7
73	8
74	16
75	7
76	6
77	4
78	6
79	5
80	8
81	6
82	8
83	12
84	5
85	4
86	7
87	4
88	4
89	7
90	4
91	5
92	6
93	9
94	4
95	6
96	4
97	6
98	7
99	4
100	9
101	6
102	7
103	7
104	10
105	5
106	8
107	10
108	8
109	7
110	6
111	4
112	7
113	4
114	9
115	4
116	5
117	8
118	8
119	4
120	6
121	10
122	4
123	6
124	4
125	6
126	9
127	10
128	10
129	8
130	8
131	6
132	8
133	11
134	8
135	5
136	8
137	8
138	4
139	5
140	5
141	7
142	5
143	4
144	4
145	5
146	4
147	8
148	8
149	3
150	8
151	7
152	3
153	6
154	5
155	3
156	6
157	6
158	10
159	4
160	9
161	8
162	4
163	4
164	7
165	8
166	7
167	5
168	14
169	10
170	5
171	9
172	4
173	10
174	5
175	4
176	9
177	7
178	5
179	8
180	7
181	5
182	8
183	6
184	10
185	6
186	6
187	4
188	8
189	4
190	5
191	7
192	3
193	3
194	8
195	5
196	3
197	10
198	8
199	8
200	5
201	7
202	7
203	9
204	5
205	8
206	10
207	7
208	14
209	6
210	6
211	6
212	13
213	6
214	8
215	7
216	5
217	4
218	4
219	5
220	4
221	5
222	4
223	4
224	6
225	7
226	5
227	7
228	8
229	3
230	5
231	3
232	7
233	4
234	4
235	5
236	5
237	5
238	6
239	7
240	6
241	5
242	5
243	4
244	4
245	5
246	4
247	6
248	3
249	7
250	6
251	8
252	4
253	8
254	9
255	10
256	4
257	11
258	7
259	10
260	4
261	5
262	6
263	6
264	6
265	6
266	4
267	4
268	6
269	6
270	4
271	4
272	4
273	6
274	6
275	4
276	5
277	7
278	10
279	6
280	8
281	6
282	5
283	5
284	7
285	10
286	4
287	5
288	4
289	7
290	4
291	8
292	6
293	5
294	4
295	5
296	5
297	5
298	8
299	8
300	9
301	9
302	6
303	4
304	5
305	5
306	6
307	5
308	4
309	7
310	9
311	4
312	7
313	4
314	5
315	5
316	6
317	5
318	13
319	6
320	8
321	5
322	11
323	5
324	6
325	11
326	5
327	4
328	6
329	4
330	5
331	5
332	8
333	6
334	5
335	9
336	11
337	5
338	8
339	4
340	5
341	9
342	6
343	7
344	5
345	8
346	5
347	6
348	3
349	10
350	9
351	4
352	5
353	5
354	10
355	5
356	4
357	4
358	13
359	5
360	5
361	5
362	4
363	4
364	4
365	5
366	7
367	13
368	4
369	13
370	5
371	6
372	4
373	6
374	9
375	6
376	7
377	9
378	7
379	7
380	4
381	4
382	9
383	9
384	7
385	4
386	9
387	5
388	7
389	6
390	5
391	7
392	6
393	6
394	10
395	9
396	3
397	7
398	4
399	5
400	6
401	5
402	4
403	9
404	15
405	7
406	7
407	6
408	8
409	8
410	5
411	10
412	7
413	7
414	7
415	10
416	6
417	11
418	12
419	5
420	7
421	4
422	4
423	5
424	5
425	4
426	4
427	7
428	9
429	9
430	6
431	4
432	7
433	9
434	8
435	9
436	8
437	4
438	5
439	9
440	3
441	4
442	3
443	6
444	7
445	8
446	9
447	6
448	6
449	5
450	6
451	6
452	4
453	5
454	7
455	5
DEPOT_SECTION
1
-1
EOF
